Optimize a model with 100400 rows, 50200 columns and 280400 nonzeros
Found heuristic solution: objective 2.08e+06
Presolve removed 20400 rows and 0 columns
Presolve time: 2.39s
Presolved: 80000 rows, 50200 columns, 260000 nonzeros
Variable types: 0 continuous, 50200 integer (50200 binary)

Root relaxation: objective 3.363333e+06, 27036 iterations, 1.68 seconds
Total elapsed time = 5.89s

    Nodes    |    Current Node    |     Objective Bounds      |     Work
 Expl Unexpl |  Obj  Depth IntInf | Incumbent    BestBd   Gap | It/Node Time

     0     0 3363333.33    0 10000 2080000.00 3363333.33  61.7%     -    6s
     0     0     cutoff    0      2080000.00 2080000.00  0.00%     -   59s

Cutting planes:
  Gomory: 199
  Cover: 10000
  Clique: 12000
  Mod-K: 10000

Explored 0 nodes (98106 simplex iterations) in 59.73 seconds
Thread count was 8 (of 8 available processors)

Optimal solution found (tolerance 1.00e-04)
Best objective 2.080000000000e+06, best bound 2.080000000000e+06, gap 0.0%

Gurobi 5.5.0 (mac64) logging started Wed Jan  7 19:13:09 2015

